benchmark/results/graph__15-1000-0.10-04_14/graph__15-1000-0.10-04_14_QuintonOs_Benders_primal_sub.lp
\ This file has been generated by DOcplex
\ ENCODING=ISO-8859-1
\Problem name: Quinton Bounded Benders_primal_sub

Maximize
 obj: tau
Subject To
 c1: tau <= 0.001494768311
 c2: y_a0_proc_0 + y_a0_proc_1 + y_a0_proc_2 + y_a0_proc_3 - tau = 0
 c3: y_a0_proc_0 <= 1
 c4: y_a0_proc_1 <= 0
 c5: y_a0_proc_2 <= 0
 c6: y_a0_proc_3 <= 0
 c7: tau <= 0.001552795031
 c8: y_a1_proc_1 + y_a1_proc_2 + y_a1_proc_3 - tau = 0
 c9: y_a1_proc_1 <= 0
 c10: y_a1_proc_2 <= 0
 c11: y_a1_proc_3 <= 1
 c12: tau <= 0.001300390117
 c13: y_a2_proc_0 + y_a2_proc_2 - tau = 0
 c14: y_a2_proc_0 <= 0
 c15: y_a2_proc_2 <= 1
 c16: tau <= 0.001023541453
 c17: y_a3_proc_0 + y_a3_proc_1 + y_a3_proc_2 + y_a3_proc_3 - tau = 0
 c18: y_a3_proc_0 <= 0
 c19: y_a3_proc_1 <= 0
 c20: y_a3_proc_2 <= 1
 c21: y_a3_proc_3 <= 0
 c22: tau <= 0.002066115702
 c23: y_a4_proc_0 + y_a4_proc_1 + y_a4_proc_2 + y_a4_proc_3 - tau = 0
 c24: y_a4_proc_0 <= 0
 c25: y_a4_proc_1 <= 0
 c26: y_a4_proc_2 <= 1
 c27: y_a4_proc_3 <= 0
 c28: tau <= 0.002150537634
 c29: y_a5_proc_0 + y_a5_proc_2 + y_a5_proc_3 - tau = 0
 c30: y_a5_proc_0 <= 0
 c31: y_a5_proc_2 <= 1
 c32: y_a5_proc_3 <= 0
 c33: tau <= 0.001937984496
 c34: y_a6_proc_0 + y_a6_proc_1 + y_a6_proc_2 + y_a6_proc_3 - tau = 0
 c35: y_a6_proc_0 <= 0
 c36: y_a6_proc_1 <= 1
 c37: y_a6_proc_2 <= 0
 c38: y_a6_proc_3 <= 0
 c39: tau <= 0.001547987616
 c40: y_a7_proc_0 + y_a7_proc_2 + y_a7_proc_3 - tau = 0
 c41: y_a7_proc_0 <= 0
 c42: y_a7_proc_2 <= 0
 c43: y_a7_proc_3 <= 1
 c44: tau <= 0.000831255195
 c45: y_a8_proc_1 + y_a8_proc_2 + y_a8_proc_3 - tau = 0
 c46: y_a8_proc_1 <= 0
 c47: y_a8_proc_2 <= 0
 c48: y_a8_proc_3 <= 1
 c49: tau <= 0.001315789474
 c50: y_a9_proc_0 + y_a9_proc_3 - tau = 0
 c51: y_a9_proc_0 <= 0
 c52: y_a9_proc_3 <= 1
 c53: tau <= 0.001196172249
 c54: y_a10_proc_1 + y_a10_proc_2 - tau = 0
 c55: y_a10_proc_1 <= 0
 c56: y_a10_proc_2 <= 1
 c57: tau <= 0.000969932105
 c58: y_a11_proc_1 + y_a11_proc_2 + y_a11_proc_3 - tau = 0
 c59: y_a11_proc_1 <= 1
 c60: y_a11_proc_2 <= 0
 c61: y_a11_proc_3 <= 0
 c62: tau <= 0.000983284169
 c63: y_a12_proc_0 + y_a12_proc_2 - tau = 0
 c64: y_a12_proc_0 <= 1
 c65: y_a12_proc_2 <= 0
 c66: tau <= 0.001078748652
 c67: y_a13_proc_1 + y_a13_proc_2 - tau = 0
 c68: y_a13_proc_1 <= 1
 c69: y_a13_proc_2 <= 0
 c70: tau <= 0.001063829787
 c71: y_a14_proc_0 + y_a14_proc_1 + y_a14_proc_2 + y_a14_proc_3 - tau = 0
 c72: y_a14_proc_0 <= 0
 c73: y_a14_proc_1 <= 0
 c74: y_a14_proc_2 <= 0
 c75: y_a14_proc_3 <= 1
 c76: u_a0 - u_a1 - 748 y_a1_proc_1 - 959 y_a1_proc_2 - 644 y_a1_proc_3 >= 0
 c77: u_a2 - u_a0 - 669 y_a0_proc_0 - 1184 y_a0_proc_1 - 281 y_a0_proc_2
      - 519 y_a0_proc_3 >= 0
 c78: u_a1 - u_a3 - 1114 y_a3_proc_0 - 1149 y_a3_proc_1 - 977 y_a3_proc_2
      - 1188 y_a3_proc_3 >= -1
 c79: u_a3 - u_a4 - 589 y_a4_proc_0 - 902 y_a4_proc_1 - 484 y_a4_proc_2
      - 615 y_a4_proc_3 >= 0
 c80: u_a2 - u_a5 - 783 y_a5_proc_0 - 465 y_a5_proc_2 - 1286 y_a5_proc_3 >= 0
 c81: u_a6 - u_a5 - 783 y_a5_proc_0 - 465 y_a5_proc_2 - 1286 y_a5_proc_3 >= -1
 c82: u_a7 - u_a6 - 921 y_a6_proc_0 - 516 y_a6_proc_1 - 946 y_a6_proc_2
      - 540 y_a6_proc_3 >= 0
 c83: u_a1 - u_a8 - 1094 y_a8_proc_1 - 789 y_a8_proc_2 - 1203 y_a8_proc_3 >= -1
 c84: u_a9 - u_a5 - 783 y_a5_proc_0 - 465 y_a5_proc_2 - 1286 y_a5_proc_3 >= -1
 c85: u_a10 - u_a2 - 1097 y_a2_proc_0 - 769 y_a2_proc_2 >= -1
 c86: u_a11 - u_a2 - 1097 y_a2_proc_0 - 769 y_a2_proc_2 >= 0
 c87: u_a12 - u_a0 - 669 y_a0_proc_0 - 1184 y_a0_proc_1 - 281 y_a0_proc_2
      - 519 y_a0_proc_3 >= 0
 c88: u_a13 - u_a7 - 482 y_a7_proc_0 - 737 y_a7_proc_2 - 646 y_a7_proc_3 >= 0
 c89: u_a13 - u_a14 - 531 y_a14_proc_0 - 1150 y_a14_proc_1 - 942 y_a14_proc_2
      - 940 y_a14_proc_3 >= 0
 c90: u_a4 - u_a7 - 482 y_a7_proc_0 - 737 y_a7_proc_2 - 646 y_a7_proc_3 >= 0
 c91: u_a11 - u_a14 - 531 y_a14_proc_0 - 1150 y_a14_proc_1 - 942 y_a14_proc_2
      - 940 y_a14_proc_3 >= 0
 c92: u_a6 - u_a10 - 1006 y_a10_proc_1 - 836 y_a10_proc_2 >= 0
 c93: u_a14 - u_a12 - 1017 y_a12_proc_0 - 1047 y_a12_proc_2 >= 0
 c94: u_a10 - u_a9 - 1132 y_a9_proc_0 - 760 y_a9_proc_3 >= 0
 c95: u_a4 - u_a14 - 531 y_a14_proc_0 - 1150 y_a14_proc_1 - 942 y_a14_proc_2
      - 940 y_a14_proc_3 >= 0
 c96: u_a8 - u_a10 - 1006 y_a10_proc_1 - 836 y_a10_proc_2 >= 0
 c97: u_a14 - u_a11 - 1031 y_a11_proc_1 - 1054 y_a11_proc_2 - 1172 y_a11_proc_3
       >= -1
 c98: u_a8 - u_a9 - 1132 y_a9_proc_0 - 760 y_a9_proc_3 >= 0
 c99: - 1094 y_a8_proc_1 - 789 y_a8_proc_2 - 1203 y_a8_proc_3 >= -1
 c100: u_a3 - u_a11 - 1031 y_a11_proc_1 - 1054 y_a11_proc_2 - 1172 y_a11_proc_3
        >= 0
 c101: u_a14 - u_a4 - 589 y_a4_proc_0 - 902 y_a4_proc_1 - 484 y_a4_proc_2
       - 615 y_a4_proc_3 >= -1
 c102: u_a5 - u_a6 - 921 y_a6_proc_0 - 516 y_a6_proc_1 - 946 y_a6_proc_2
       - 540 y_a6_proc_3 >= 0
 c103: u_a9 - u_a1 - 748 y_a1_proc_1 - 959 y_a1_proc_2 - 644 y_a1_proc_3 >= 0
 c104: u_a1 - u_a0 - 281 y_a0_proc_2 >= -2591
 c105: u_a1 - u_a0 - 519 y_a0_proc_3 >= -1305
 c106: u_a1 - u_a0 - 1184 y_a0_proc_1 >= -2591
 c107: u_a0 - u_a1 - 959 y_a1_proc_2 >= -2554
 c108: u_a0 - u_a1 - 644 y_a1_proc_3 >= -1268
 c109: u_a0 - u_a1 - 748 y_a1_proc_1 >= -2554
 c110: u_a2 - u_a0 - 669 y_a0_proc_0 >= -1305
 c111: u_a2 - u_a0 - 281 y_a0_proc_2 >= -1305
 c112: u_a0 - u_a2 - 1097 y_a2_proc_0 >= -1268
 c113: u_a0 - u_a2 - 769 y_a2_proc_2 >= -1268
 c114: u_a3 - u_a0 - 669 y_a0_proc_0 >= -1305
 c115: u_a3 - u_a0 - 281 y_a0_proc_2 >= -1305
 c116: u_a3 - u_a0 - 519 y_a0_proc_3 >= -2591
 c117: u_a3 - u_a0 - 1184 y_a0_proc_1 >= -2591
 c118: u_a0 - u_a3 - 1114 y_a3_proc_0 >= -1268
 c119: u_a0 - u_a3 - 977 y_a3_proc_2 >= -1268
 c120: u_a0 - u_a3 - 1188 y_a3_proc_3 >= -2554
 c121: u_a0 - u_a3 - 1149 y_a3_proc_1 >= -2554
 c122: u_a4 - u_a0 - 669 y_a0_proc_0 >= -1305
 c123: u_a4 - u_a0 - 281 y_a0_proc_2 >= -1305
 c124: u_a4 - u_a0 - 519 y_a0_proc_3 >= -2591
 c125: u_a4 - u_a0 - 1184 y_a0_proc_1 >= -2591
 c126: u_a0 - u_a4 - 589 y_a4_proc_0 >= -1268
 c127: u_a0 - u_a4 - 484 y_a4_proc_2 >= -1268
 c128: u_a0 - u_a4 - 615 y_a4_proc_3 >= -2554
 c129: u_a0 - u_a4 - 902 y_a4_proc_1 >= -2554
 c130: u_a5 - u_a0 - 669 y_a0_proc_0 >= -1268
 c131: u_a5 - u_a0 - 281 y_a0_proc_2 >= -1268
 c132: u_a5 - u_a0 - 519 y_a0_proc_3 >= -2554
 c133: u_a0 - u_a5 - 783 y_a5_proc_0 >= -1305
 c134: u_a0 - u_a5 - 465 y_a5_proc_2 >= -1305
 c135: u_a0 - u_a5 - 1286 y_a5_proc_3 >= -2591
 c136: u_a6 - u_a0 - 669 y_a0_proc_0 >= -1305
 c137: u_a6 - u_a0 - 281 y_a0_proc_2 >= -2591
 c138: u_a6 - u_a0 - 519 y_a0_proc_3 >= -2591
 c139: u_a6 - u_a0 - 1184 y_a0_proc_1 >= -1305
 c140: u_a0 - u_a6 - 921 y_a6_proc_0 >= -1268
 c141: u_a0 - u_a6 - 946 y_a6_proc_2 >= -2554
 c142: u_a0 - u_a6 - 540 y_a6_proc_3 >= -2554
 c143: u_a0 - u_a6 - 516 y_a6_proc_1 >= -1268
 c144: u_a7 - u_a0 - 669 y_a0_proc_0 >= -1305
 c145: u_a7 - u_a0 - 281 y_a0_proc_2 >= -2591
 c146: u_a7 - u_a0 - 519 y_a0_proc_3 >= -1305
 c147: u_a0 - u_a7 - 482 y_a7_proc_0 >= -1268
 c148: u_a0 - u_a7 - 737 y_a7_proc_2 >= -2554
 c149: u_a0 - u_a7 - 646 y_a7_proc_3 >= -1268
 c150: u_a8 - u_a0 - 281 y_a0_proc_2 >= -2591
 c151: u_a8 - u_a0 - 519 y_a0_proc_3 >= -1305
 c152: u_a8 - u_a0 - 1184 y_a0_proc_1 >= -2591
 c153: u_a0 - u_a8 - 789 y_a8_proc_2 >= -2554
 c154: u_a0 - u_a8 - 1203 y_a8_proc_3 >= -1268
 c155: u_a0 - u_a8 - 1094 y_a8_proc_1 >= -2554
 c156: u_a9 - u_a0 - 669 y_a0_proc_0 >= -1268
 c157: u_a9 - u_a0 - 519 y_a0_proc_3 >= -1268
 c158: u_a0 - u_a9 - 1132 y_a9_proc_0 >= -1305
 c159: u_a0 - u_a9 - 760 y_a9_proc_3 >= -1305
 c160: u_a10 - u_a0 - 281 y_a0_proc_2 >= -1268
 c161: u_a10 - u_a0 - 1184 y_a0_proc_1 >= -2554
 c162: u_a0 - u_a10 - 836 y_a10_proc_2 >= -1305
 c163: u_a0 - u_a10 - 1006 y_a10_proc_1 >= -2591
 c164: u_a11 - u_a0 - 281 y_a0_proc_2 >= -2591
 c165: u_a11 - u_a0 - 519 y_a0_proc_3 >= -2591
 c166: u_a11 - u_a0 - 1184 y_a0_proc_1 >= -1305
 c167: u_a0 - u_a11 - 1054 y_a11_proc_2 >= -2554
 c168: u_a0 - u_a11 - 1172 y_a11_proc_3 >= -2554
 c169: u_a0 - u_a11 - 1031 y_a11_proc_1 >= -1268
 c170: u_a12 - u_a0 - 669 y_a0_proc_0 >= 0
 c171: u_a12 - u_a0 - 281 y_a0_proc_2 >= -2572
 c172: u_a0 - u_a12 - 1017 y_a12_proc_0 >= -1
 c173: u_a0 - u_a12 - 1047 y_a12_proc_2 >= -2573
 c174: u_a13 - u_a0 - 281 y_a0_proc_2 >= -2591
 c175: u_a13 - u_a0 - 1184 y_a0_proc_1 >= -1305
 c176: u_a0 - u_a13 - 1145 y_a13_proc_2 >= -2554
 c177: u_a0 - u_a13 - 927 y_a13_proc_1 >= -1268
 c178: u_a14 - u_a0 - 669 y_a0_proc_0 >= -1305
 c179: u_a14 - u_a0 - 281 y_a0_proc_2 >= -2591
 c180: u_a14 - u_a0 - 519 y_a0_proc_3 >= -1305
 c181: u_a14 - u_a0 - 1184 y_a0_proc_1 >= -2591
 c182: u_a0 - u_a14 - 531 y_a14_proc_0 >= -1268
 c183: u_a0 - u_a14 - 942 y_a14_proc_2 >= -2554
 c184: u_a0 - u_a14 - 940 y_a14_proc_3 >= -1268
 c185: u_a0 - u_a14 - 1150 y_a14_proc_1 >= -2554
 c186: u_a2 - u_a1 - 959 y_a1_proc_2 >= -1305
 c187: u_a1 - u_a2 - 769 y_a2_proc_2 >= -1268
 c188: u_a3 - u_a1 - 959 y_a1_proc_2 >= -1305
 c189: u_a3 - u_a1 - 644 y_a1_proc_3 >= -1305
 c190: u_a3 - u_a1 - 748 y_a1_proc_1 >= -2591
 c191: u_a1 - u_a3 - 977 y_a3_proc_2 >= -1268
 c192: u_a1 - u_a3 - 1188 y_a3_proc_3 >= -1268
 c193: u_a1 - u_a3 - 1149 y_a3_proc_1 >= -2554
 c194: u_a4 - u_a1 - 959 y_a1_proc_2 >= -1305
 c195: u_a4 - u_a1 - 644 y_a1_proc_3 >= -1305
 c196: u_a4 - u_a1 - 748 y_a1_proc_1 >= -2591
 c197: u_a1 - u_a4 - 484 y_a4_proc_2 >= -1268
 c198: u_a1 - u_a4 - 615 y_a4_proc_3 >= -1268
 c199: u_a1 - u_a4 - 902 y_a4_proc_1 >= -2554
 c200: u_a5 - u_a1 - 959 y_a1_proc_2 >= -1305
 c201: u_a5 - u_a1 - 644 y_a1_proc_3 >= -1305
 c202: u_a1 - u_a5 - 465 y_a5_proc_2 >= -1268
 c203: u_a1 - u_a5 - 1286 y_a5_proc_3 >= -1268
 c204: u_a6 - u_a1 - 959 y_a1_proc_2 >= -2591
 c205: u_a6 - u_a1 - 644 y_a1_proc_3 >= -1305
 c206: u_a6 - u_a1 - 748 y_a1_proc_1 >= -1305
 c207: u_a1 - u_a6 - 946 y_a6_proc_2 >= -2554
 c208: u_a1 - u_a6 - 540 y_a6_proc_3 >= -1268
 c209: u_a1 - u_a6 - 516 y_a6_proc_1 >= -1268
 c210: u_a7 - u_a1 - 959 y_a1_proc_2 >= -2572
 c211: u_a7 - u_a1 - 644 y_a1_proc_3 >= 0
 c212: u_a1 - u_a7 - 737 y_a7_proc_2 >= -2573
 c213: u_a1 - u_a7 - 646 y_a7_proc_3 >= -1
 c214: u_a8 - u_a1 - 959 y_a1_proc_2 >= -2572
 c215: u_a8 - u_a1 - 644 y_a1_proc_3 >= 0
 c216: u_a8 - u_a1 - 748 y_a1_proc_1 >= -2572
 c217: u_a1 - u_a8 - 789 y_a8_proc_2 >= -2573
 c218: u_a1 - u_a8 - 1203 y_a8_proc_3 >= -1
 c219: u_a1 - u_a8 - 1094 y_a8_proc_1 >= -2573
 c220: u_a9 - u_a1 - 644 y_a1_proc_3 >= 0
 c221: u_a1 - u_a9 - 760 y_a9_proc_3 >= -1
 c222: u_a10 - u_a1 - 959 y_a1_proc_2 >= -1305
 c223: u_a10 - u_a1 - 748 y_a1_proc_1 >= -2591
 c224: u_a1 - u_a10 - 836 y_a10_proc_2 >= -1268
 c225: u_a1 - u_a10 - 1006 y_a10_proc_1 >= -2554
 c226: u_a11 - u_a1 - 959 y_a1_proc_2 >= -2591
 c227: u_a11 - u_a1 - 644 y_a1_proc_3 >= -1305
 c228: u_a11 - u_a1 - 748 y_a1_proc_1 >= -1305
 c229: u_a1 - u_a11 - 1054 y_a11_proc_2 >= -2554
 c230: u_a1 - u_a11 - 1172 y_a11_proc_3 >= -1268
 c231: u_a1 - u_a11 - 1031 y_a11_proc_1 >= -1268
 c232: u_a12 - u_a1 - 959 y_a1_proc_2 >= -2591
 c233: u_a1 - u_a12 - 1047 y_a12_proc_2 >= -2554
 c234: u_a13 - u_a1 - 959 y_a1_proc_2 >= -2591
 c235: u_a13 - u_a1 - 748 y_a1_proc_1 >= -1305
 c236: u_a1 - u_a13 - 1145 y_a13_proc_2 >= -2554
 c237: u_a1 - u_a13 - 927 y_a13_proc_1 >= -1268
 c238: u_a14 - u_a1 - 959 y_a1_proc_2 >= -2572
 c239: u_a14 - u_a1 - 644 y_a1_proc_3 >= 0
 c240: u_a14 - u_a1 - 748 y_a1_proc_1 >= -2572
 c241: u_a1 - u_a14 - 942 y_a14_proc_2 >= -2573
 c242: u_a1 - u_a14 - 940 y_a14_proc_3 >= -1
 c243: u_a1 - u_a14 - 1150 y_a14_proc_1 >= -2573
 c244: u_a3 - u_a2 - 1097 y_a2_proc_0 >= -2572
 c245: u_a3 - u_a2 - 769 y_a2_proc_2 >= 0
 c246: u_a2 - u_a3 - 1114 y_a3_proc_0 >= -2573
 c247: u_a2 - u_a3 - 977 y_a3_proc_2 >= -1
 c248: u_a4 - u_a2 - 1097 y_a2_proc_0 >= -2572
 c249: u_a4 - u_a2 - 769 y_a2_proc_2 >= 0
 c250: u_a2 - u_a4 - 589 y_a4_proc_0 >= -2573
 c251: u_a2 - u_a4 - 484 y_a4_proc_2 >= -1
 c252: u_a5 - u_a2 - 1097 y_a2_proc_0 >= -2573
 c253: u_a5 - u_a2 - 769 y_a2_proc_2 >= -1
 c254: u_a2 - u_a5 - 783 y_a5_proc_0 >= -2572
 c255: u_a2 - u_a5 - 465 y_a5_proc_2 >= 0
 c256: u_a6 - u_a2 - 1097 y_a2_proc_0 >= -2591
 c257: u_a6 - u_a2 - 769 y_a2_proc_2 >= -1305
 c258: u_a2 - u_a6 - 921 y_a6_proc_0 >= -2554
 c259: u_a2 - u_a6 - 946 y_a6_proc_2 >= -1268
 c260: u_a7 - u_a2 - 1097 y_a2_proc_0 >= -2554
 c261: u_a7 - u_a2 - 769 y_a2_proc_2 >= -1268
 c262: u_a2 - u_a7 - 482 y_a7_proc_0 >= -2591
 c263: u_a2 - u_a7 - 737 y_a7_proc_2 >= -1305
 c264: u_a8 - u_a2 - 769 y_a2_proc_2 >= -1268
 c265: u_a2 - u_a8 - 789 y_a8_proc_2 >= -1305
 c266: u_a9 - u_a2 - 1097 y_a2_proc_0 >= -2591
 c267: u_a2 - u_a9 - 1132 y_a9_proc_0 >= -2554
 c268: u_a10 - u_a2 - 769 y_a2_proc_2 >= -1
 c269: u_a2 - u_a10 - 836 y_a10_proc_2 >= 0
 c270: u_a11 - u_a2 - 769 y_a2_proc_2 >= -1305
 c271: u_a2 - u_a11 - 1054 y_a11_proc_2 >= -1268
 c272: u_a12 - u_a2 - 1097 y_a2_proc_0 >= -1268
 c273: u_a12 - u_a2 - 769 y_a2_proc_2 >= -1268
 c274: u_a2 - u_a12 - 1017 y_a12_proc_0 >= -1305
 c275: u_a2 - u_a12 - 1047 y_a12_proc_2 >= -1305
 c276: u_a13 - u_a2 - 769 y_a2_proc_2 >= -1305
 c277: u_a2 - u_a13 - 1145 y_a13_proc_2 >= -1268
 c278: u_a14 - u_a2 - 1097 y_a2_proc_0 >= -2554
 c279: u_a14 - u_a2 - 769 y_a2_proc_2 >= -1268
 c280: u_a2 - u_a14 - 531 y_a14_proc_0 >= -2591
 c281: u_a2 - u_a14 - 942 y_a14_proc_2 >= -1305
 c282: u_a4 - u_a3 - 1114 y_a3_proc_0 >= -2573
 c283: u_a4 - u_a3 - 977 y_a3_proc_2 >= -1
 c284: u_a4 - u_a3 - 1188 y_a3_proc_3 >= -2573
 c285: u_a4 - u_a3 - 1149 y_a3_proc_1 >= -2573
 c286: u_a3 - u_a4 - 589 y_a4_proc_0 >= -2572
 c287: u_a3 - u_a4 - 484 y_a4_proc_2 >= 0
 c288: u_a3 - u_a4 - 615 y_a4_proc_3 >= -2572
 c289: u_a3 - u_a4 - 902 y_a4_proc_1 >= -2572
 c290: u_a5 - u_a3 - 1114 y_a3_proc_0 >= -2573
 c291: u_a5 - u_a3 - 977 y_a3_proc_2 >= -1
 c292: u_a5 - u_a3 - 1188 y_a3_proc_3 >= -2573
 c293: u_a3 - u_a5 - 783 y_a5_proc_0 >= -2572
 c294: u_a3 - u_a5 - 465 y_a5_proc_2 >= 0
 c295: u_a3 - u_a5 - 1286 y_a5_proc_3 >= -2572
 c296: u_a6 - u_a3 - 1114 y_a3_proc_0 >= -2591
 c297: u_a6 - u_a3 - 977 y_a3_proc_2 >= -1305
 c298: u_a6 - u_a3 - 1188 y_a3_proc_3 >= -2591
 c299: u_a6 - u_a3 - 1149 y_a3_proc_1 >= -1305
 c300: u_a3 - u_a6 - 921 y_a6_proc_0 >= -2554
 c301: u_a3 - u_a6 - 946 y_a6_proc_2 >= -1268
 c302: u_a3 - u_a6 - 540 y_a6_proc_3 >= -2554
 c303: u_a3 - u_a6 - 516 y_a6_proc_1 >= -1268
 c304: u_a7 - u_a3 - 1114 y_a3_proc_0 >= -2591
 c305: u_a7 - u_a3 - 977 y_a3_proc_2 >= -1305
 c306: u_a7 - u_a3 - 1188 y_a3_proc_3 >= -1305
 c307: u_a3 - u_a7 - 482 y_a7_proc_0 >= -2554
 c308: u_a3 - u_a7 - 737 y_a7_proc_2 >= -1268
 c309: u_a3 - u_a7 - 646 y_a7_proc_3 >= -1268
 c310: u_a8 - u_a3 - 977 y_a3_proc_2 >= -1268
 c311: u_a8 - u_a3 - 1188 y_a3_proc_3 >= -1268
 c312: u_a8 - u_a3 - 1149 y_a3_proc_1 >= -2554
 c313: u_a3 - u_a8 - 789 y_a8_proc_2 >= -1305
 c314: u_a3 - u_a8 - 1203 y_a8_proc_3 >= -1305
 c315: u_a3 - u_a8 - 1094 y_a8_proc_1 >= -2591
 c316: u_a9 - u_a3 - 1114 y_a3_proc_0 >= -2554
 c317: u_a9 - u_a3 - 1188 y_a3_proc_3 >= -1268
 c318: u_a3 - u_a9 - 1132 y_a9_proc_0 >= -2591
 c319: u_a3 - u_a9 - 760 y_a9_proc_3 >= -1305
 c320: u_a10 - u_a3 - 977 y_a3_proc_2 >= -1
 c321: u_a10 - u_a3 - 1149 y_a3_proc_1 >= -2573
 c322: u_a3 - u_a10 - 836 y_a10_proc_2 >= 0
 c323: u_a3 - u_a10 - 1006 y_a10_proc_1 >= -2572
 c324: u_a11 - u_a3 - 977 y_a3_proc_2 >= -1305
 c325: u_a11 - u_a3 - 1188 y_a3_proc_3 >= -2591
 c326: u_a11 - u_a3 - 1149 y_a3_proc_1 >= -1305
 c327: u_a3 - u_a11 - 1054 y_a11_proc_2 >= -1268
 c328: u_a3 - u_a11 - 1172 y_a11_proc_3 >= -2554
 c329: u_a3 - u_a11 - 1031 y_a11_proc_1 >= -1268
 c330: u_a12 - u_a3 - 1114 y_a3_proc_0 >= -1305
 c331: u_a12 - u_a3 - 977 y_a3_proc_2 >= -1305
 c332: u_a3 - u_a12 - 1017 y_a12_proc_0 >= -1268
 c333: u_a3 - u_a12 - 1047 y_a12_proc_2 >= -1268
 c334: u_a13 - u_a3 - 977 y_a3_proc_2 >= -1305
 c335: u_a13 - u_a3 - 1149 y_a3_proc_1 >= -1305
 c336: u_a3 - u_a13 - 1145 y_a13_proc_2 >= -1268
 c337: u_a3 - u_a13 - 927 y_a13_proc_1 >= -1268
 c338: u_a14 - u_a3 - 1114 y_a3_proc_0 >= -2591
 c339: u_a14 - u_a3 - 977 y_a3_proc_2 >= -1305
 c340: u_a14 - u_a3 - 1188 y_a3_proc_3 >= -1305
 c341: u_a14 - u_a3 - 1149 y_a3_proc_1 >= -2591
 c342: u_a3 - u_a14 - 531 y_a14_proc_0 >= -2554
 c343: u_a3 - u_a14 - 942 y_a14_proc_2 >= -1268
 c344: u_a3 - u_a14 - 940 y_a14_proc_3 >= -1268
 c345: u_a3 - u_a14 - 1150 y_a14_proc_1 >= -2554
 c346: u_a5 - u_a4 - 589 y_a4_proc_0 >= -2573
 c347: u_a5 - u_a4 - 484 y_a4_proc_2 >= -1
 c348: u_a5 - u_a4 - 615 y_a4_proc_3 >= -2573
 c349: u_a4 - u_a5 - 783 y_a5_proc_0 >= -2572
 c350: u_a4 - u_a5 - 465 y_a5_proc_2 >= 0
 c351: u_a4 - u_a5 - 1286 y_a5_proc_3 >= -2572
 c352: u_a6 - u_a4 - 589 y_a4_proc_0 >= -2554
 c353: u_a6 - u_a4 - 484 y_a4_proc_2 >= -1268
 c354: u_a6 - u_a4 - 615 y_a4_proc_3 >= -2554
 c355: u_a6 - u_a4 - 902 y_a4_proc_1 >= -1268
 c356: u_a4 - u_a6 - 921 y_a6_proc_0 >= -2591
 c357: u_a4 - u_a6 - 946 y_a6_proc_2 >= -1305
 c358: u_a4 - u_a6 - 540 y_a6_proc_3 >= -2591
 c359: u_a4 - u_a6 - 516 y_a6_proc_1 >= -1305
 c360: u_a7 - u_a4 - 589 y_a4_proc_0 >= -2554
 c361: u_a7 - u_a4 - 484 y_a4_proc_2 >= -1268
 c362: u_a7 - u_a4 - 615 y_a4_proc_3 >= -1268
 c363: u_a4 - u_a7 - 482 y_a7_proc_0 >= -2591
 c364: u_a4 - u_a7 - 737 y_a7_proc_2 >= -1305
 c365: u_a4 - u_a7 - 646 y_a7_proc_3 >= -1305
 c366: u_a8 - u_a4 - 484 y_a4_proc_2 >= -1305
 c367: u_a8 - u_a4 - 615 y_a4_proc_3 >= -1305
 c368: u_a8 - u_a4 - 902 y_a4_proc_1 >= -2591
 c369: u_a4 - u_a8 - 789 y_a8_proc_2 >= -1268
 c370: u_a4 - u_a8 - 1203 y_a8_proc_3 >= -1268
 c371: u_a4 - u_a8 - 1094 y_a8_proc_1 >= -2554
 c372: u_a9 - u_a4 - 589 y_a4_proc_0 >= -2554
 c373: u_a9 - u_a4 - 615 y_a4_proc_3 >= -1268
 c374: u_a4 - u_a9 - 1132 y_a9_proc_0 >= -2591
 c375: u_a4 - u_a9 - 760 y_a9_proc_3 >= -1305
 c376: u_a10 - u_a4 - 484 y_a4_proc_2 >= -1
 c377: u_a10 - u_a4 - 902 y_a4_proc_1 >= -2573
 c378: u_a4 - u_a10 - 836 y_a10_proc_2 >= 0
 c379: u_a4 - u_a10 - 1006 y_a10_proc_1 >= -2572
 c380: u_a11 - u_a4 - 484 y_a4_proc_2 >= -1268
 c381: u_a11 - u_a4 - 615 y_a4_proc_3 >= -2554
 c382: u_a11 - u_a4 - 902 y_a4_proc_1 >= -1268
 c383: u_a4 - u_a11 - 1054 y_a11_proc_2 >= -1305
 c384: u_a4 - u_a11 - 1172 y_a11_proc_3 >= -2591
 c385: u_a4 - u_a11 - 1031 y_a11_proc_1 >= -1305
 c386: u_a12 - u_a4 - 589 y_a4_proc_0 >= -1268
 c387: u_a12 - u_a4 - 484 y_a4_proc_2 >= -1268
 c388: u_a4 - u_a12 - 1017 y_a12_proc_0 >= -1305
 c389: u_a4 - u_a12 - 1047 y_a12_proc_2 >= -1305
 c390: u_a13 - u_a4 - 484 y_a4_proc_2 >= -1305
 c391: u_a13 - u_a4 - 902 y_a4_proc_1 >= -1305
 c392: u_a4 - u_a13 - 1145 y_a13_proc_2 >= -1268
 c393: u_a4 - u_a13 - 927 y_a13_proc_1 >= -1268
 c394: u_a14 - u_a4 - 589 y_a4_proc_0 >= -2591
 c395: u_a14 - u_a4 - 484 y_a4_proc_2 >= -1305
 c396: u_a14 - u_a4 - 615 y_a4_proc_3 >= -1305
 c397: u_a14 - u_a4 - 902 y_a4_proc_1 >= -2591
 c398: u_a4 - u_a14 - 531 y_a14_proc_0 >= -2554
 c399: u_a4 - u_a14 - 942 y_a14_proc_2 >= -1268
 c400: u_a4 - u_a14 - 940 y_a14_proc_3 >= -1268
 c401: u_a4 - u_a14 - 1150 y_a14_proc_1 >= -2554
 c402: u_a6 - u_a5 - 783 y_a5_proc_0 >= -2591
 c403: u_a6 - u_a5 - 465 y_a5_proc_2 >= -1305
 c404: u_a6 - u_a5 - 1286 y_a5_proc_3 >= -2591
 c405: u_a5 - u_a6 - 921 y_a6_proc_0 >= -2554
 c406: u_a5 - u_a6 - 946 y_a6_proc_2 >= -1268
 c407: u_a5 - u_a6 - 540 y_a6_proc_3 >= -2554
 c408: u_a7 - u_a5 - 783 y_a5_proc_0 >= -2554
 c409: u_a7 - u_a5 - 465 y_a5_proc_2 >= -1268
 c410: u_a7 - u_a5 - 1286 y_a5_proc_3 >= -1268
 c411: u_a5 - u_a7 - 482 y_a7_proc_0 >= -2591
 c412: u_a5 - u_a7 - 737 y_a7_proc_2 >= -1305
 c413: u_a5 - u_a7 - 646 y_a7_proc_3 >= -1305
 c414: u_a8 - u_a5 - 465 y_a5_proc_2 >= -1305
 c415: u_a8 - u_a5 - 1286 y_a5_proc_3 >= -1305
 c416: u_a5 - u_a8 - 789 y_a8_proc_2 >= -1268
 c417: u_a5 - u_a8 - 1203 y_a8_proc_3 >= -1268
 c418: u_a9 - u_a5 - 783 y_a5_proc_0 >= -2591
 c419: u_a9 - u_a5 - 1286 y_a5_proc_3 >= -1305
 c420: u_a5 - u_a9 - 1132 y_a9_proc_0 >= -2554
 c421: u_a5 - u_a9 - 760 y_a9_proc_3 >= -1268
 c422: u_a10 - u_a5 - 465 y_a5_proc_2 >= -1
 c423: u_a5 - u_a10 - 836 y_a10_proc_2 >= 0
 c424: u_a11 - u_a5 - 465 y_a5_proc_2 >= -1305
 c425: u_a11 - u_a5 - 1286 y_a5_proc_3 >= -2591
 c426: u_a5 - u_a11 - 1054 y_a11_proc_2 >= -1268
 c427: u_a5 - u_a11 - 1172 y_a11_proc_3 >= -2554
 c428: u_a12 - u_a5 - 783 y_a5_proc_0 >= -1305
 c429: u_a12 - u_a5 - 465 y_a5_proc_2 >= -1305
 c430: u_a5 - u_a12 - 1017 y_a12_proc_0 >= -1268
 c431: u_a5 - u_a12 - 1047 y_a12_proc_2 >= -1268
 c432: u_a13 - u_a5 - 465 y_a5_proc_2 >= -1305
 c433: u_a5 - u_a13 - 1145 y_a13_proc_2 >= -1268
 c434: u_a14 - u_a5 - 783 y_a5_proc_0 >= -2591
 c435: u_a14 - u_a5 - 465 y_a5_proc_2 >= -1305
 c436: u_a14 - u_a5 - 1286 y_a5_proc_3 >= -1305
 c437: u_a5 - u_a14 - 531 y_a14_proc_0 >= -2554
 c438: u_a5 - u_a14 - 942 y_a14_proc_2 >= -1268
 c439: u_a5 - u_a14 - 940 y_a14_proc_3 >= -1268
 c440: u_a7 - u_a6 - 921 y_a6_proc_0 >= -2554
 c441: u_a7 - u_a6 - 946 y_a6_proc_2 >= -2554
 c442: u_a7 - u_a6 - 540 y_a6_proc_3 >= -1268
 c443: u_a6 - u_a7 - 482 y_a7_proc_0 >= -2591
 c444: u_a6 - u_a7 - 737 y_a7_proc_2 >= -2591
 c445: u_a6 - u_a7 - 646 y_a7_proc_3 >= -1305
 c446: u_a8 - u_a6 - 946 y_a6_proc_2 >= -2554
 c447: u_a8 - u_a6 - 540 y_a6_proc_3 >= -1268
 c448: u_a8 - u_a6 - 516 y_a6_proc_1 >= -1268
 c449: u_a6 - u_a8 - 789 y_a8_proc_2 >= -2591
 c450: u_a6 - u_a8 - 1203 y_a8_proc_3 >= -1305
 c451: u_a6 - u_a8 - 1094 y_a8_proc_1 >= -1305
 c452: u_a9 - u_a6 - 921 y_a6_proc_0 >= -2554
 c453: u_a9 - u_a6 - 540 y_a6_proc_3 >= -1268
 c454: u_a6 - u_a9 - 1132 y_a9_proc_0 >= -2591
 c455: u_a6 - u_a9 - 760 y_a9_proc_3 >= -1305
 c456: u_a10 - u_a6 - 946 y_a6_proc_2 >= -1305
 c457: u_a10 - u_a6 - 516 y_a6_proc_1 >= -1305
 c458: u_a6 - u_a10 - 836 y_a10_proc_2 >= -1268
 c459: u_a6 - u_a10 - 1006 y_a10_proc_1 >= -1268
 c460: u_a11 - u_a6 - 946 y_a6_proc_2 >= -2572
 c461: u_a11 - u_a6 - 540 y_a6_proc_3 >= -2572
 c462: u_a11 - u_a6 - 516 y_a6_proc_1 >= 0
 c463: u_a6 - u_a11 - 1054 y_a11_proc_2 >= -2573
 c464: u_a6 - u_a11 - 1172 y_a11_proc_3 >= -2573
 c465: u_a6 - u_a11 - 1031 y_a11_proc_1 >= -1
 c466: u_a12 - u_a6 - 921 y_a6_proc_0 >= -1305
 c467: u_a12 - u_a6 - 946 y_a6_proc_2 >= -2591
 c468: u_a6 - u_a12 - 1017 y_a12_proc_0 >= -1268
 c469: u_a6 - u_a12 - 1047 y_a12_proc_2 >= -2554
 c470: u_a13 - u_a6 - 946 y_a6_proc_2 >= -2571
 c471: u_a13 - u_a6 - 516 y_a6_proc_1 >= 1
 c472: u_a6 - u_a13 - 1145 y_a13_proc_2 >= -2574
 c473: u_a6 - u_a13 - 927 y_a13_proc_1 >= -2
 c474: u_a14 - u_a6 - 921 y_a6_proc_0 >= -2591
 c475: u_a14 - u_a6 - 946 y_a6_proc_2 >= -2591
 c476: u_a14 - u_a6 - 540 y_a6_proc_3 >= -1305
 c477: u_a14 - u_a6 - 516 y_a6_proc_1 >= -1305
 c478: u_a6 - u_a14 - 531 y_a14_proc_0 >= -2554
 c479: u_a6 - u_a14 - 942 y_a14_proc_2 >= -2554
 c480: u_a6 - u_a14 - 940 y_a14_proc_3 >= -1268
 c481: u_a6 - u_a14 - 1150 y_a14_proc_1 >= -1268
 c482: u_a8 - u_a7 - 737 y_a7_proc_2 >= -2572
 c483: u_a8 - u_a7 - 646 y_a7_proc_3 >= 0
 c484: u_a7 - u_a8 - 789 y_a8_proc_2 >= -2573
 c485: u_a7 - u_a8 - 1203 y_a8_proc_3 >= -1
 c486: u_a9 - u_a7 - 482 y_a7_proc_0 >= -2573
 c487: u_a9 - u_a7 - 646 y_a7_proc_3 >= -1
 c488: u_a7 - u_a9 - 1132 y_a9_proc_0 >= -2572
 c489: u_a7 - u_a9 - 760 y_a9_proc_3 >= 0
 c490: u_a10 - u_a7 - 737 y_a7_proc_2 >= -1305
 c491: u_a7 - u_a10 - 836 y_a10_proc_2 >= -1268
 c492: u_a11 - u_a7 - 737 y_a7_proc_2 >= -2591
 c493: u_a11 - u_a7 - 646 y_a7_proc_3 >= -1305
 c494: u_a7 - u_a11 - 1054 y_a11_proc_2 >= -2554
 c495: u_a7 - u_a11 - 1172 y_a11_proc_3 >= -1268
 c496: u_a12 - u_a7 - 482 y_a7_proc_0 >= -1268
 c497: u_a12 - u_a7 - 737 y_a7_proc_2 >= -2554
 c498: u_a7 - u_a12 - 1017 y_a12_proc_0 >= -1305
 c499: u_a7 - u_a12 - 1047 y_a12_proc_2 >= -2591
 c500: u_a13 - u_a7 - 737 y_a7_proc_2 >= -2554
 c501: u_a7 - u_a13 - 1145 y_a13_proc_2 >= -2591
 c502: u_a14 - u_a7 - 482 y_a7_proc_0 >= -2573
 c503: u_a14 - u_a7 - 737 y_a7_proc_2 >= -2573
 c504: u_a14 - u_a7 - 646 y_a7_proc_3 >= -1
 c505: u_a7 - u_a14 - 531 y_a14_proc_0 >= -2572
 c506: u_a7 - u_a14 - 942 y_a14_proc_2 >= -2572
 c507: u_a7 - u_a14 - 940 y_a14_proc_3 >= 0
 c508: u_a9 - u_a8 - 1203 y_a8_proc_3 >= -1
 c509: u_a8 - u_a9 - 760 y_a9_proc_3 >= 0
 c510: u_a10 - u_a8 - 789 y_a8_proc_2 >= -1305
 c511: u_a10 - u_a8 - 1094 y_a8_proc_1 >= -2591
 c512: u_a8 - u_a10 - 836 y_a10_proc_2 >= -1268
 c513: u_a8 - u_a10 - 1006 y_a10_proc_1 >= -2554
 c514: u_a11 - u_a8 - 789 y_a8_proc_2 >= -2554
 c515: u_a11 - u_a8 - 1203 y_a8_proc_3 >= -1268
 c516: u_a11 - u_a8 - 1094 y_a8_proc_1 >= -1268
 c517: u_a8 - u_a11 - 1054 y_a11_proc_2 >= -2591
 c518: u_a8 - u_a11 - 1172 y_a11_proc_3 >= -1305
 c519: u_a8 - u_a11 - 1031 y_a11_proc_1 >= -1305
 c520: u_a12 - u_a8 - 789 y_a8_proc_2 >= -2591
 c521: u_a8 - u_a12 - 1047 y_a12_proc_2 >= -2554
 c522: u_a13 - u_a8 - 789 y_a8_proc_2 >= -2591
 c523: u_a13 - u_a8 - 1094 y_a8_proc_1 >= -1305
 c524: u_a8 - u_a13 - 1145 y_a13_proc_2 >= -2554
 c525: u_a8 - u_a13 - 927 y_a13_proc_1 >= -1268
 c526: u_a14 - u_a8 - 789 y_a8_proc_2 >= -2573
 c527: u_a14 - u_a8 - 1203 y_a8_proc_3 >= -1
 c528: u_a14 - u_a8 - 1094 y_a8_proc_1 >= -2573
 c529: u_a8 - u_a14 - 942 y_a14_proc_2 >= -2572
 c530: u_a8 - u_a14 - 940 y_a14_proc_3 >= 0
 c531: u_a8 - u_a14 - 1150 y_a14_proc_1 >= -2572
 c532: u_a11 - u_a9 - 760 y_a9_proc_3 >= -1305
 c533: u_a9 - u_a11 - 1172 y_a11_proc_3 >= -1268
 c534: u_a12 - u_a9 - 1132 y_a9_proc_0 >= -1305
 c535: u_a9 - u_a12 - 1017 y_a12_proc_0 >= -1268
 c536: u_a14 - u_a9 - 1132 y_a9_proc_0 >= -2572
 c537: u_a14 - u_a9 - 760 y_a9_proc_3 >= 0
 c538: u_a9 - u_a14 - 531 y_a14_proc_0 >= -2573
 c539: u_a9 - u_a14 - 940 y_a14_proc_3 >= -1
 c540: u_a11 - u_a10 - 836 y_a10_proc_2 >= -1305
 c541: u_a11 - u_a10 - 1006 y_a10_proc_1 >= -1305
 c542: u_a10 - u_a11 - 1054 y_a11_proc_2 >= -1268
 c543: u_a10 - u_a11 - 1031 y_a11_proc_1 >= -1268
 c544: u_a12 - u_a10 - 836 y_a10_proc_2 >= -1305
 c545: u_a10 - u_a12 - 1047 y_a12_proc_2 >= -1268
 c546: u_a13 - u_a10 - 836 y_a10_proc_2 >= -1268
 c547: u_a13 - u_a10 - 1006 y_a10_proc_1 >= -1268
 c548: u_a10 - u_a13 - 1145 y_a13_proc_2 >= -1305
 c549: u_a10 - u_a13 - 927 y_a13_proc_1 >= -1305
 c550: u_a14 - u_a10 - 836 y_a10_proc_2 >= -1305
 c551: u_a14 - u_a10 - 1006 y_a10_proc_1 >= -2591
 c552: u_a10 - u_a14 - 942 y_a14_proc_2 >= -1268
 c553: u_a10 - u_a14 - 1150 y_a14_proc_1 >= -2554
 c554: u_a12 - u_a11 - 1054 y_a11_proc_2 >= -2591
 c555: u_a11 - u_a12 - 1047 y_a12_proc_2 >= -2554
 c556: u_a13 - u_a11 - 1054 y_a11_proc_2 >= -2572
 c557: u_a13 - u_a11 - 1031 y_a11_proc_1 >= 0
 c558: u_a11 - u_a13 - 1145 y_a13_proc_2 >= -2573
 c559: u_a11 - u_a13 - 927 y_a13_proc_1 >= -1
 c560: u_a14 - u_a11 - 1054 y_a11_proc_2 >= -2591
 c561: u_a14 - u_a11 - 1172 y_a11_proc_3 >= -1305
 c562: u_a14 - u_a11 - 1031 y_a11_proc_1 >= -1305
 c563: u_a11 - u_a14 - 942 y_a14_proc_2 >= -2554
 c564: u_a11 - u_a14 - 940 y_a14_proc_3 >= -1268
 c565: u_a11 - u_a14 - 1150 y_a14_proc_1 >= -1268
 c566: u_a13 - u_a12 - 1047 y_a12_proc_2 >= -2591
 c567: u_a12 - u_a13 - 1145 y_a13_proc_2 >= -2554
 c568: u_a14 - u_a12 - 1017 y_a12_proc_0 >= -1305
 c569: u_a14 - u_a12 - 1047 y_a12_proc_2 >= -2591
 c570: u_a12 - u_a14 - 531 y_a14_proc_0 >= -1268
 c571: u_a12 - u_a14 - 942 y_a14_proc_2 >= -2554
 c572: u_a14 - u_a13 - 1145 y_a13_proc_2 >= -2591
 c573: u_a14 - u_a13 - 927 y_a13_proc_1 >= -1305
 c574: u_a13 - u_a14 - 942 y_a14_proc_2 >= -2554
 c575: u_a13 - u_a14 - 1150 y_a14_proc_1 >= -1268

Bounds
End
